NAME : gr96
TYPE : OP
DIMENSION : 96
COST_LIMIT : 52449
ROUTE_NODES : 95
ROUTE_SCORE : 4851
ROUTE_COST : 52355
NODE_SEQUENCE_SECTION
1
30
31
32
36
37
38
79
82
81
83
91
90
89
87
88
78
85
86
84
74
75
73
72
71
76
77
92
93
95
94
96
65
66
68
67
64
63
62
61
60
59
70
69
57
56
58
54
53
55
51
52
50
49
43
42
41
40
39
35
34
33
44
45
11
46
47
48
25
24
23
27
28
26
22
21
19
18
20
17
16
15
14
13
12
10
9
8
7
6
5
4
3
2
29
-1
DEPOT_SECTION
1
-1
EOF
